120
150
69
88
38
52
81
83
45
37
98
58
69
22
50
24
29
57
54
89
83
72
71
89
99
94
50
79
89
98
23
32
26
75
81
29
95
96
26
60
28
69
95
81
43
23
100
97
28
88
53
43
88
89
28
95
28
91
43
59
67
39
22
75
25
88
36
22
98
98
98
71
99
91
20
59
95
57
32
83
71
49
50
69
93
94
55
72
76
30
30
20
76
93
81
89
29
100
26
97
100
50
91
28
57
61
62
59
100
62
50
49
72
100
67
50
72
69
72
62
76
53
